
c turning on binary mode checking

c parsing input formula with 86 variables and 430 clauses

c finished parsing, read 2476 bytes from proof file

c detected empty clause; start verification via backward checking

c 131 of 430 clauses in core                            

c 63 of 176 lemmas in core using 235 resolution steps

c 0 RAT lemmas in core; 0 redundant literals in core lemmas

s VERIFIED

c verification time: 0.137 seconds
